1 1 -2 0
1 -1 -3 0
1 1 -4 0
1 5 6 0
1 -2 -7 0
1 -8 9 0
1 -6 10 0
1 11 12 0
1 11 13 0
1 14 15 0
1 14 16 0
1 -14 2 0
1 3 -9 0
1 12 17 0
1 -12 11 0
1 18 19 0
1 19 20 0
1 -19 -14 0
1 -21 -14 0
1 -21 19 0
1 22 23 0
1 24 25 0
1 -26 -6 0
1 26 27 0
1 -10 16 0
1 16 -28 0
1 16 29 0
1 -29 -30 0
1 27 -9 0
1 31 -28 0
1 -32 -12 0
1 -9 33 0
1 17 -34 0
1 -35 -10 0
1 -35 -36 0
1 -37 -32 0
1 -38 -12 0
1 -38 -39 0
1 38 -22 0
1 25 36 0
1 -25 -40 0
1 -36 25 0
1 36 40 0
1 -39 38 0
1 41 42 0
1 40 -4 0
